<number of tasks>
70

<cycle time>
527

<task times>
1 17
2 66
3 54
4 52
5 6
6 88
7 21
8 128
9 68
10 70
11 85
12 21
13 134
14 135
15 94
16 90
17 50
18 143
19 19
20 54
21 50
22 40
23 73
24 12
25 152
26 42
27 45
28 74
29 26
30 11
31 31
32 50
33 102
34 46
35 35
36 40
37 2
38 1
39 3
40 13
41 16
42 25
43 21
44 43
45 30
46 83
47 89
48 56
49 59
50 43
51 11
52 26
53 44
54 121
55 38
56 68
57 22
58 7
59 16
60 32
61 25
62 27
63 156
64 28
65 15
66 26
67 18
68 72
69 23
70 27

<precedence relations>
1,2
1,41
1,69
1,70
2,3
3,4
3,68
4,6
4,7
5,6
5,24
5,30
6,8
7,8
8,12
9,10
10,11
11,12
12,13
12,14
13,23
14,23
15,16
16,17
16,18
17,19
18,19
19,20
19,22
19,57
20,21
21,23
22,23
23,25
23,31
23,33
24,25
25,26
25,27
25,28
25,29
26,35
27,35
28,35
29,35
30,31
31,32
32,35
33,34
34,35
35,36
35,44
35,48
35,51
35,53
35,56
35,60
35,61
35,62
36,37
37,38
38,39
39,40
40,42
41,42
42,43
43,50
44,45
45,46
46,47
47,50
48,49
49,50
51,52
52,54
53,54
54,55
57,58
58,59
59,60
61,65
62,63
63,64
64,65
64,66
64,67

<setup times forward>
1,11:10
1,16:10
1,17:4
1,18:10
1,19:4
1,20:4
1,21:4
1,22:4
1,30:10
1,41:10
1,57:4
1,58:4
1,59:4
2,11:10
2,16:10
2,17:4
2,18:10
2,19:4
2,20:4
2,21:4
2,22:4
2,30:10
2,41:10
2,57:4
2,58:4
2,59:4
3,11:10
3,16:10
3,17:4
3,18:10
3,19:4
3,20:4
3,21:4
3,22:4
3,30:10
3,41:10
3,57:4
3,58:4
3,59:4
4,7:10
4,11:10
4,16:10
4,17:4
4,18:10
4,19:4
4,20:4
4,21:4
4,22:4
4,30:10
4,41:10
4,57:4
4,58:4
4,59:4
5,7:10
5,11:10
5,16:10
5,17:4
5,18:10
5,19:4
5,20:4
5,21:4
5,22:4
5,30:10
5,41:10
5,57:4
5,58:4
5,59:4
6,7:10
6,8:10
6,11:10
6,16:10
6,17:4
6,18:10
6,19:4
6,20:4
6,21:4
6,22:4
6,30:10
6,41:10
6,57:4
6,58:4
6,59:4
7,5:10
7,6:10
7,9:10
7,10:10
7,15:10
7,17:14
7,19:14
7,20:14
7,21:14
7,22:14
7,24:10
7,57:14
7,58:14
7,59:14
7,68:10
7,69:10
7,70:10
8,9:10
8,10:10
8,15:10
8,17:14
8,19:14
8,20:14
8,21:14
8,22:14
8,24:10
8,57:14
8,58:14
8,59:14
8,68:10
8,69:10
8,70:10
9,7:10
9,8:10
9,16:10
9,17:4
9,18:10
9,19:4
9,20:4
9,21:4
9,22:4
9,30:10
9,41:10
9,57:4
9,58:4
9,59:4
10,7:10
10,8:10
10,11:10
10,16:10
10,17:4
10,18:10
10,19:4
10,20:4
10,21:4
10,22:4
10,30:10
10,41:10
10,57:4
10,58:4
10,59:4
11,1:10
11,2:10
11,3:10
11,4:10
11,5:10
11,6:10
11,15:10
11,17:14
11,19:14
11,20:14
11,21:14
11,22:14
11,24:10
11,57:14
11,58:14
11,59:14
11,68:10
11,69:10
11,70:10
12,13:14
12,14:14
12,15:10
12,17:14
12,19:14
12,20:14
12,21:14
12,22:14
12,24:10
12,57:14
12,58:14
12,59:14
12,68:10
12,69:10
12,70:10
13,15:4
13,16:14
13,18:14
13,23:8
13,24:4
13,30:14
13,41:14
13,68:4
13,69:4
13,70:4
14,15:4
14,16:14
14,18:14
14,23:8
14,24:4
14,30:14
14,41:14
14,68:4
14,69:4
14,70:4
15,7:10
15,8:10
15,11:10
15,12:10
15,13:4
15,14:4
15,16:10
15,30:10
15,41:10
16,1:10
16,2:10
16,3:10
16,4:10
16,5:10
16,6:10
16,9:10
16,10:10
16,13:14
16,14:14
16,17:14
16,24:10
16,68:10
16,69:10
16,70:10
17,1:4
17,2:4
17,3:4
17,4:4
17,5:4
17,6:4
17,7:14
17,8:14
17,9:4
17,10:4
17,11:14
17,12:14
17,18:14
17,24:4
17,30:14
17,41:14
17,68:4
17,69:4
17,70:4
18,1:10
18,2:10
18,3:10
18,4:10
18,5:10
18,6:10
18,9:10
18,10:10
18,13:14
18,14:14
18,17:14
18,19:14
18,24:10
18,68:10
18,69:10
18,70:10
19,1:4
19,2:4
19,3:4
19,4:4
19,5:4
19,6:4
19,7:14
19,8:14
19,9:4
19,10:4
19,11:14
19,12:14
19,24:4
19,30:14
19,41:14
19,68:4
19,69:4
19,70:4
20,1:4
20,2:4
20,3:4
20,4:4
20,5:4
20,6:4
20,7:14
20,8:14
20,9:4
20,10:4
20,11:14
20,12:14
20,24:4
20,30:14
20,41:14
20,68:4
20,69:4
20,70:4
21,1:4
21,2:4
21,3:4
21,4:4
21,5:4
21,6:4
21,7:14
21,8:14
21,9:4
21,10:4
21,11:14
21,12:14
21,23:8
21,24:4
21,30:14
21,41:14
21,68:4
21,69:4
21,70:4
22,1:4
22,2:4
22,3:4
22,4:4
22,5:4
22,6:4
22,7:14
22,8:14
22,9:4
22,10:4
22,11:14
22,12:14
22,23:8
22,24:4
22,30:14
22,41:14
22,68:4
22,69:4
22,70:4
23,24:4
23,30:6
23,41:6
23,57:8
23,58:8
23,59:8
23,68:4
23,69:4
23,70:4
24,7:10
24,8:10
24,11:10
24,12:10
24,13:4
24,14:4
24,16:10
24,17:4
24,18:10
24,19:4
24,20:4
24,21:4
24,22:4
24,23:4
24,25:4
24,30:10
24,31:4
24,32:4
24,33:4
24,34:3
24,41:10
24,57:4
24,58:4
24,59:4
25,26:1
25,29:1
25,30:6
25,34:1
25,41:6
25,57:8
25,58:8
25,59:8
25,68:4
25,69:4
25,70:4
26,27:1
26,28:1
26,30:7
26,31:1
26,32:1
26,33:1
26,41:7
26,57:7
26,58:7
26,59:7
26,68:3
26,69:3
26,70:3
27,26:1
27,29:1
27,30:6
27,34:1
27,35:1
27,41:6
27,57:8
27,58:8
27,59:8
27,68:4
27,69:4
27,70:4
28,26:1
28,29:1
28,30:6
28,34:1
28,35:1
28,41:6
28,57:8
28,58:8
28,59:8
28,68:4
28,69:4
28,70:4
29,27:1
29,28:1
29,30:7
29,31:1
29,32:1
29,33:1
29,41:7
29,57:7
29,58:7
29,59:7
29,68:3
29,69:3
29,70:3
30,1:10
30,2:10
30,3:10
30,4:10
30,6:10
30,9:10
30,10:10
30,13:14
30,14:14
30,15:10
30,17:14
30,19:14
30,20:14
30,21:14
30,22:14
30,23:6
30,24:10
30,25:6
30,26:7
30,27:6
30,28:6
30,29:7
30,31:6
30,33:6
30,34:7
30,57:14
30,58:14
30,59:14
30,68:10
30,69:10
30,70:10
31,24:4
31,26:1
31,29:1
31,34:1
31,41:6
31,57:8
31,58:8
31,59:8
31,68:4
31,69:4
31,70:4
32,24:4
32,26:1
32,29:1
32,34:1
32,35:1
32,41:6
32,57:8
32,58:8
32,59:8
32,68:4
32,69:4
32,70:4
33,24:4
33,26:1
33,29:1
33,30:6
33,34:1
33,41:6
33,57:8
33,58:8
33,59:8
33,68:4
33,69:4
33,70:4
34,24:3
34,25:1
34,27:1
34,28:1
34,30:7
34,31:1
34,32:1
34,41:7
34,57:7
34,58:7
34,59:7
34,68:3
34,69:3
34,70:3
35,36:8
35,41:7
35,48:8
35,53:8
35,56:3
35,57:7
35,58:7
35,59:7
35,60:3
35,61:8
35,68:3
35,69:3
35,70:3
36,41:15
36,44:8
36,45:8
36,46:8
36,51:8
36,52:8
36,55:5
36,56:5
36,57:1
36,58:1
36,59:1
36,60:5
36,62:8
36,63:8
36,65:5
36,66:5
36,67:5
36,68:5
36,69:5
36,70:5
37,41:15
37,44:8
37,45:8
37,46:8
37,51:8
37,52:8
37,55:5
37,56:5
37,57:1
37,58:1
37,59:1
37,60:5
37,62:8
37,63:8
37,65:5
37,66:5
37,67:5
37,68:5
37,69:5
37,70:5
38,41:15
38,44:8
38,45:8
38,46:8
38,51:8
38,52:8
38,55:5
38,56:5
38,57:1
38,58:1
38,59:1
38,60:5
38,62:8
38,63:8
38,65:5
38,66:5
38,67:5
38,68:5
38,69:5
38,70:5
39,41:15
39,44:8
39,45:8
39,46:8
39,51:8
39,52:8
39,55:5
39,56:5
39,57:1
39,58:1
39,59:1
39,60:5
39,62:8
39,63:8
39,65:5
39,66:5
39,67:5
39,68:5
39,69:5
39,70:5
40,41:15
40,44:8
40,45:8
40,46:8
40,51:8
40,52:8
40,55:5
40,56:5
40,57:1
40,58:1
40,59:1
40,60:5
40,62:8
40,63:8
40,65:5
40,66:5
40,67:5
40,68:5
40,69:5
40,70:5
41,2:10
41,3:10
41,4:10
41,5:10
41,6:10
41,9:10
41,10:10
41,13:14
41,14:14
41,15:10
41,17:14
41,19:14
41,20:14
41,21:14
41,22:14
41,23:6
41,24:10
41,25:6
41,26:7
41,27:6
41,28:6
41,29:7
41,31:6
41,32:6
41,33:6
41,34:7
41,35:7
41,36:15
41,37:15
41,38:15
41,39:15
41,40:15
41,42:15
41,44:7
41,45:7
41,46:7
41,47:15
41,48:15
41,49:15
41,51:7
41,52:7
41,53:15
41,54:15
41,55:10
41,56:10
41,57:14
41,58:14
41,59:14
41,60:10
41,61:15
41,62:7
41,63:7
41,64:15
41,65:10
41,66:10
41,67:10
41,68:10
41,69:10
41,70:10
42,44:8
42,45:8
42,46:8
42,51:8
42,52:8
42,55:5
42,56:5
42,57:1
42,58:1
42,59:1
42,60:5
42,62:8
42,63:8
42,65:5
42,66:5
42,67:5
42,68:5
42,69:5
42,70:5
43,44:8
43,45:8
43,46:8
43,50:5
43,51:8
43,52:8
43,55:5
43,56:5
43,57:1
43,58:1
43,59:1
43,60:5
43,62:8
43,63:8
43,65:5
43,66:5
43,67:5
43,68:5
43,69:5
43,70:5
44,36:8
44,37:8
44,38:8
44,39:8
44,40:8
44,41:7
44,42:8
44,43:8
44,48:8
44,49:8
44,53:8
44,54:8
44,55:3
44,56:3
44,57:7
44,58:7
44,59:7
44,60:3
44,61:8
44,64:8
44,65:3
44,66:3
44,67:3
44,68:3
44,69:3
44,70:3
45,36:8
45,37:8
45,38:8
45,39:8
45,40:8
45,41:7
45,42:8
45,43:8
45,48:8
45,49:8
45,53:8
45,54:8
45,55:3
45,56:3
45,57:7
45,58:7
45,59:7
45,60:3
45,61:8
45,64:8
45,65:3
45,66:3
45,67:3
45,68:3
45,69:3
45,70:3
46,36:8
46,37:8
46,38:8
46,39:8
46,40:8
46,41:7
46,42:8
46,43:8
46,47:8
46,48:8
46,49:8
46,53:8
46,54:8
46,55:3
46,56:3
46,57:7
46,58:7
46,59:7
46,60:3
46,61:8
46,64:8
46,65:3
46,66:3
46,67:3
46,68:3
46,69:3
46,70:3
47,41:15
47,50:5
47,51:8
47,52:8
47,55:5
47,56:5
47,57:1
47,58:1
47,59:1
47,60:5
47,62:8
47,63:8
47,65:5
47,66:5
47,67:5
47,68:5
47,69:5
47,70:5
48,41:15
48,44:8
48,45:8
48,46:8
48,51:8
48,52:8
48,55:5
48,56:5
48,57:1
48,58:1
48,59:1
48,60:5
48,62:8
48,63:8
48,65:5
48,66:5
48,67:5
48,68:5
48,69:5
48,70:5
49,41:15
49,44:8
49,45:8
49,46:8
49,50:5
49,51:8
49,52:8
49,55:5
49,56:5
49,57:1
49,58:1
49,59:1
49,60:5
49,62:8
49,63:8
49,65:5
49,66:5
49,67:5
49,68:5
49,69:5
49,70:5
50,51:3
50,52:3
50,53:5
50,54:5
50,57:4
50,58:4
50,59:4
50,61:5
50,62:3
50,63:3
50,64:5
51,36:8
51,37:8
51,38:8
51,39:8
51,40:8
51,41:7
51,42:8
51,43:8
51,47:8
51,48:8
51,49:8
51,50:3
51,53:8
51,56:3
51,57:7
51,58:7
51,59:7
51,60:3
51,61:8
51,64:8
51,65:3
51,66:3
51,67:3
51,68:3
51,69:3
51,70:3
52,36:8
52,37:8
52,38:8
52,39:8
52,40:8
52,41:7
52,42:8
52,43:8
52,47:8
52,48:8
52,49:8
52,50:3
52,53:8
52,54:8
52,56:3
52,57:7
52,58:7
52,59:7
52,60:3
52,61:8
52,64:8
52,65:3
52,66:3
52,67:3
52,68:3
52,69:3
52,70:3
53,41:15
53,44:8
53,45:8
53,46:8
53,50:5
53,51:8
53,52:8
53,56:5
53,57:1
53,58:1
53,59:1
53,60:5
53,62:8
53,63:8
53,65:5
53,66:5
53,67:5
53,68:5
53,69:5
53,70:5
54,41:15
54,44:8
54,45:8
54,46:8
54,50:5
54,55:5
54,56:5
54,57:1
54,58:1
54,59:1
54,60:5
54,62:8
54,63:8
54,65:5
54,66:5
54,67:5
54,68:5
54,69:5
54,70:5
55,36:5
55,37:5
55,38:5
55,39:5
55,40:5
55,41:10
55,42:5
55,43:5
55,44:3
55,45:3
55,46:3
55,47:5
55,48:5
55,49:5
55,57:4
55,58:4
55,59:4
55,61:5
55,62:3
55,63:3
55,64:5
56,36:5
56,37:5
56,38:5
56,39:5
56,40:5
56,41:10
56,42:5
56,43:5
56,44:3
56,45:3
56,46:3
56,47:5
56,48:5
56,49:5
56,51:3
56,52:3
56,53:5
56,54:5
56,57:4
56,58:4
56,59:4
56,61:5
56,62:3
56,63:3
56,64:5
57,1:4
57,2:4
57,3:4
57,4:4
57,5:4
57,6:4
57,7:14
57,8:14
57,9:4
57,10:4
57,11:14
57,12:14
57,23:8
57,24:4
57,25:8
57,26:7
57,27:8
57,28:8
57,29:7
57,30:14
57,31:8
57,32:8
57,33:8
57,34:7
57,35:7
57,36:1
57,37:1
57,38:1
57,39:1
57,40:1
57,41:14
57,42:1
57,43:1
57,44:7
57,45:7
57,46:7
57,47:1
57,48:1
57,49:1
57,50:4
57,51:7
57,52:7
57,53:1
57,54:1
57,55:4
57,56:4
57,61:1
57,62:7
57,63:7
57,64:1
57,65:4
57,66:4
57,67:4
57,68:4
57,69:4
57,70:4
58,1:4
58,2:4
58,3:4
58,4:4
58,5:4
58,6:4
58,7:14
58,8:14
58,9:4
58,10:4
58,11:14
58,12:14
58,23:8
58,24:4
58,25:8
58,26:7
58,27:8
58,28:8
58,29:7
58,30:14
58,31:8
58,32:8
58,33:8
58,34:7
58,35:7
58,36:1
58,37:1
58,38:1
58,39:1
58,40:1
58,41:14
58,42:1
58,43:1
58,44:7
58,45:7
58,46:7
58,47:1
58,48:1
58,49:1
58,50:4
58,51:7
58,52:7
58,53:1
58,54:1
58,55:4
58,56:4
58,61:1
58,62:7
58,63:7
58,64:1
58,65:4
58,66:4
58,67:4
58,68:4
58,69:4
58,70:4
59,1:4
59,2:4
59,3:4
59,4:4
59,5:4
59,6:4
59,7:14
59,8:14
59,9:4
59,10:4
59,11:14
59,12:14
59,23:8
59,24:4
59,25:8
59,26:7
59,27:8
59,28:8
59,29:7
59,30:14
59,31:8
59,32:8
59,33:8
59,34:7
59,35:7
59,36:1
59,37:1
59,38:1
59,39:1
59,40:1
59,41:14
59,42:1
59,43:1
59,44:7
59,45:7
59,46:7
59,47:1
59,48:1
59,49:1
59,50:4
59,51:7
59,52:7
59,53:1
59,54:1
59,55:4
59,56:4
59,60:4
59,61:1
59,62:7
59,63:7
59,64:1
59,65:4
59,66:4
59,67:4
59,68:4
59,69:4
59,70:4
60,36:5
60,37:5
60,38:5
60,39:5
60,40:5
60,41:10
60,42:5
60,43:5
60,44:3
60,45:3
60,46:3
60,47:5
60,48:5
60,49:5
60,51:3
60,52:3
60,53:5
60,54:5
60,61:5
60,62:3
60,63:3
60,64:5
61,41:15
61,44:8
61,45:8
61,46:8
61,50:5
61,51:8
61,52:8
61,55:5
61,56:5
61,57:1
61,58:1
61,59:1
61,60:5
61,62:8
61,63:8
61,65:5
61,66:5
61,67:5
61,68:5
61,69:5
61,70:5
62,36:8
62,37:8
62,38:8
62,39:8
62,40:8
62,41:7
62,42:8
62,43:8
62,47:8
62,48:8
62,49:8
62,50:3
62,53:8
62,54:8
62,55:3
62,56:3
62,57:7
62,58:7
62,59:7
62,60:3
62,61:8
62,68:3
62,69:3
62,70:3
63,36:8
63,37:8
63,38:8
63,39:8
63,40:8
63,41:7
63,42:8
63,43:8
63,47:8
63,48:8
63,49:8
63,50:3
63,53:8
63,54:8
63,55:3
63,56:3
63,57:7
63,58:7
63,59:7
63,60:3
63,61:8
63,64:8
63,68:3
63,69:3
63,70:3
64,41:15
64,44:8
64,45:8
64,46:8
64,50:5
64,51:8
64,52:8
64,55:5
64,56:5
64,57:1
64,58:1
64,59:1
64,60:5
64,65:5
64,66:5
64,67:5
64,68:5
64,69:5
64,70:5
65,36:5
65,37:5
65,38:5
65,39:5
65,40:5
65,41:10
65,42:5
65,43:5
65,44:3
65,45:3
65,46:3
65,47:5
65,48:5
65,49:5
65,51:3
65,52:3
65,53:5
65,54:5
65,57:4
65,58:4
65,59:4
66,36:5
66,37:5
66,38:5
66,39:5
66,40:5
66,41:10
66,42:5
66,43:5
66,44:3
66,45:3
66,46:3
66,47:5
66,48:5
66,49:5
66,51:3
66,52:3
66,53:5
66,54:5
66,57:4
66,58:4
66,59:4
66,61:5
67,36:5
67,37:5
67,38:5
67,39:5
67,40:5
67,41:10
67,42:5
67,43:5
67,44:3
67,45:3
67,46:3
67,47:5
67,48:5
67,49:5
67,51:3
67,52:3
67,53:5
67,54:5
67,57:4
67,58:4
67,59:4
67,61:5
68,7:10
68,8:10
68,11:10
68,12:10
68,13:4
68,14:4
68,16:10
68,17:4
68,18:10
68,19:4
68,20:4
68,21:4
68,22:4
68,23:4
68,25:4
68,26:3
68,27:4
68,28:4
68,29:3
68,30:10
68,31:4
68,32:4
68,33:4
68,34:3
68,35:3
68,36:5
68,37:5
68,38:5
68,39:5
68,40:5
68,41:10
68,42:5
68,43:5
68,44:3
68,45:3
68,46:3
68,47:5
68,48:5
68,49:5
68,51:3
68,52:3
68,53:5
68,54:5
68,57:4
68,58:4
68,59:4
68,61:5
68,62:3
68,63:3
68,64:5
69,7:10
69,8:10
69,11:10
69,12:10
69,13:4
69,14:4
69,16:10
69,17:4
69,18:10
69,19:4
69,20:4
69,21:4
69,22:4
69,23:4
69,25:4
69,26:3
69,27:4
69,28:4
69,29:3
69,30:10
69,31:4
69,32:4
69,33:4
69,34:3
69,35:3
69,36:5
69,37:5
69,38:5
69,39:5
69,40:5
69,41:10
69,42:5
69,43:5
69,44:3
69,45:3
69,46:3
69,47:5
69,48:5
69,49:5
69,51:3
69,52:3
69,53:5
69,54:5
69,57:4
69,58:4
69,59:4
69,61:5
69,62:3
69,63:3
69,64:5
70,7:10
70,8:10
70,11:10
70,12:10
70,13:4
70,14:4
70,16:10
70,17:4
70,18:10
70,19:4
70,20:4
70,21:4
70,22:4
70,23:4
70,25:4
70,26:3
70,27:4
70,28:4
70,29:3
70,30:10
70,31:4
70,32:4
70,33:4
70,34:3
70,35:3
70,36:5
70,37:5
70,38:5
70,39:5
70,40:5
70,41:10
70,42:5
70,43:5
70,44:3
70,45:3
70,46:3
70,47:5
70,48:5
70,49:5
70,51:3
70,52:3
70,53:5
70,54:5
70,57:4
70,58:4
70,59:4
70,61:5
70,62:3
70,63:3
70,64:5

<setup times backward>
1,17:4
1,19:4
1,20:4
1,21:4
1,22:4
1,57:4
1,58:4
1,59:4
2,17:4
2,19:4
2,20:4
2,21:4
2,22:4
2,57:4
2,58:4
2,59:4
3,17:4
3,19:4
3,20:4
3,21:4
3,22:4
3,57:4
3,58:4
3,59:4
4,17:4
4,19:4
4,20:4
4,21:4
4,22:4
4,57:4
4,58:4
4,59:4
5,17:4
5,19:4
5,20:4
5,21:4
5,22:4
5,57:4
5,58:4
5,59:4
6,17:4
6,19:4
6,20:4
6,21:4
6,22:4
6,57:4
6,58:4
6,59:4
7,1:10
7,2:10
7,3:10
7,4:10
7,5:10
7,6:10
7,9:10
7,10:10
7,15:10
7,17:14
7,19:14
7,20:14
7,21:14
7,22:14
7,24:10
7,57:14
7,58:14
7,59:14
7,68:10
7,69:10
7,70:10
8,1:10
8,2:10
8,3:10
8,4:10
8,5:10
8,6:10
8,9:10
8,10:10
8,15:10
8,17:14
8,19:14
8,20:14
8,21:14
8,22:14
8,24:10
8,57:14
8,58:14
8,59:14
8,68:10
8,69:10
8,70:10
9,17:4
9,19:4
9,20:4
9,21:4
9,22:4
9,57:4
9,58:4
9,59:4
10,17:4
10,19:4
10,20:4
10,21:4
10,22:4
10,57:4
10,58:4
10,59:4
11,1:10
11,2:10
11,3:10
11,4:10
11,5:10
11,6:10
11,9:10
11,10:10
11,15:10
11,17:14
11,19:14
11,20:14
11,21:14
11,22:14
11,24:10
11,57:14
11,58:14
11,59:14
11,68:10
11,69:10
11,70:10
12,1:10
12,2:10
12,3:10
12,4:10
12,5:10
12,6:10
12,9:10
12,10:10
12,15:10
12,17:14
12,19:14
12,20:14
12,21:14
12,22:14
12,24:10
12,57:14
12,58:14
12,59:14
12,68:10
12,69:10
12,70:10
15,13:4
15,14:4
16,1:10
16,2:10
16,3:10
16,4:10
16,5:10
16,6:10
16,9:10
16,10:10
16,13:14
16,14:14
16,15:10
16,24:10
16,68:10
16,69:10
16,70:10
18,1:10
18,2:10
18,3:10
18,4:10
18,5:10
18,6:10
18,9:10
18,10:10
18,13:14
18,14:14
18,15:10
18,17:14
18,24:10
18,68:10
18,69:10
18,70:10
23,1:4
23,2:4
23,3:4
23,4:4
23,5:4
23,6:4
23,9:4
23,10:4
23,13:8
23,14:8
23,15:4
23,17:8
23,19:8
23,20:8
23,21:8
23,22:8
23,24:4
23,57:8
23,58:8
23,59:8
23,68:4
23,69:4
23,70:4
24,13:4
24,14:4
24,17:4
24,19:4
24,20:4
24,21:4
24,22:4
24,57:4
24,58:4
24,59:4
25,1:4
25,2:4
25,3:4
25,4:4
25,5:4
25,6:4
25,9:4
25,10:4
25,13:8
25,14:8
25,15:4
25,17:8
25,19:8
25,20:8
25,21:8
25,22:8
25,24:4
25,34:1
25,57:8
25,58:8
25,59:8
25,68:4
25,69:4
25,70:4
26,1:3
26,2:3
26,3:3
26,4:3
26,5:3
26,6:3
26,9:3
26,10:3
26,13:7
26,14:7
26,15:3
26,17:7
26,19:7
26,20:7
26,21:7
26,22:7
26,24:3
26,57:7
26,58:7
26,59:7
26,68:3
26,69:3
26,70:3
27,1:4
27,2:4
27,3:4
27,4:4
27,5:4
27,6:4
27,9:4
27,10:4
27,13:8
27,14:8
27,15:4
27,17:8
27,19:8
27,20:8
27,21:8
27,22:8
27,24:4
27,26:1
27,29:1
27,34:1
27,57:8
27,58:8
27,59:8
27,68:4
27,69:4
27,70:4
28,1:4
28,2:4
28,3:4
28,4:4
28,5:4
28,6:4
28,9:4
28,10:4
28,13:8
28,14:8
28,15:4
28,17:8
28,19:8
28,20:8
28,21:8
28,22:8
28,24:4
28,26:1
28,29:1
28,34:1
28,57:8
28,58:8
28,59:8
28,68:4
28,69:4
28,70:4
29,1:3
29,2:3
29,3:3
29,4:3
29,5:3
29,6:3
29,9:3
29,10:3
29,13:7
29,14:7
29,15:3
29,17:7
29,19:7
29,20:7
29,21:7
29,22:7
29,24:3
29,57:7
29,58:7
29,59:7
29,68:3
29,69:3
29,70:3
30,1:10
30,2:10
30,3:10
30,4:10
30,5:10
30,6:10
30,9:10
30,10:10
30,13:14
30,14:14
30,15:10
30,17:14
30,19:14
30,20:14
30,21:14
30,22:14
30,23:6
30,24:10
30,25:6
30,26:7
30,27:6
30,28:6
30,29:7
30,33:6
30,34:7
30,57:14
30,58:14
30,59:14
30,68:10
30,69:10
30,70:10
31,1:4
31,2:4
31,3:4
31,4:4
31,5:4
31,6:4
31,9:4
31,10:4
31,13:8
31,14:8
31,15:4
31,17:8
31,19:8
31,20:8
31,21:8
31,22:8
31,24:4
31,26:1
31,29:1
31,34:1
31,57:8
31,58:8
31,59:8
31,68:4
31,69:4
31,70:4
32,1:4
32,2:4
32,3:4
32,4:4
32,5:4
32,6:4
32,9:4
32,10:4
32,13:8
32,14:8
32,15:4
32,17:8
32,19:8
32,20:8
32,21:8
32,22:8
32,24:4
32,26:1
32,29:1
32,34:1
32,57:8
32,58:8
32,59:8
32,68:4
32,69:4
32,70:4
33,1:4
33,2:4
33,3:4
33,4:4
33,5:4
33,6:4
33,9:4
33,10:4
33,13:8
33,14:8
33,15:4
33,17:8
33,19:8
33,20:8
33,21:8
33,22:8
33,24:4
33,26:1
33,29:1
33,57:8
33,58:8
33,59:8
33,68:4
33,69:4
33,70:4
34,1:3
34,2:3
34,3:3
34,4:3
34,5:3
34,6:3
34,9:3
34,10:3
34,13:7
34,14:7
34,15:3
34,17:7
34,19:7
34,20:7
34,21:7
34,22:7
34,24:3
34,57:7
34,58:7
34,59:7
34,68:3
34,69:3
34,70:3
35,1:3
35,2:3
35,3:3
35,4:3
35,5:3
35,6:3
35,9:3
35,10:3
35,13:7
35,14:7
35,15:3
35,17:7
35,19:7
35,20:7
35,21:7
35,22:7
35,24:3
35,57:7
35,58:7
35,59:7
35,68:3
35,69:3
35,70:3
41,1:10
41,2:10
41,3:10
41,4:10
41,5:10
41,6:10
41,9:10
41,10:10
41,13:14
41,14:14
41,15:10
41,17:14
41,19:14
41,20:14
41,21:14
41,22:14
41,23:6
41,24:10
41,25:6
41,26:7
41,27:6
41,28:6
41,29:7
41,31:6
41,32:6
41,33:6
41,34:7
41,35:7
41,36:15
41,37:15
41,38:15
41,39:15
41,40:15
41,44:7
41,45:7
41,46:7
41,47:15
41,48:15
41,49:15
41,51:7
41,52:7
41,53:15
41,54:15
41,55:10
41,56:10
41,57:14
41,58:14
41,59:14
41,60:10
41,61:15
41,62:7
41,63:7
41,64:15
41,65:10
41,66:10
41,67:10
41,68:10
41,69:10
41,70:10
44,1:3
44,2:3
44,3:3
44,4:3
44,5:3
44,6:3
44,9:3
44,10:3
44,13:7
44,14:7
44,15:3
44,17:7
44,19:7
44,20:7
44,21:7
44,22:7
44,24:3
44,36:8
44,37:8
44,38:8
44,39:8
44,40:8
44,42:8
44,43:8
44,48:8
44,49:8
44,53:8
44,54:8
44,55:3
44,56:3
44,57:7
44,58:7
44,59:7
44,60:3
44,61:8
44,64:8
44,65:3
44,66:3
44,67:3
44,68:3
44,69:3
44,70:3
45,1:3
45,2:3
45,3:3
45,4:3
45,5:3
45,6:3
45,9:3
45,10:3
45,13:7
45,14:7
45,15:3
45,17:7
45,19:7
45,20:7
45,21:7
45,22:7
45,24:3
45,36:8
45,37:8
45,38:8
45,39:8
45,40:8
45,42:8
45,43:8
45,48:8
45,49:8
45,53:8
45,54:8
45,55:3
45,56:3
45,57:7
45,58:7
45,59:7
45,60:3
45,61:8
45,64:8
45,65:3
45,66:3
45,67:3
45,68:3
45,69:3
45,70:3
46,1:3
46,2:3
46,3:3
46,4:3
46,5:3
46,6:3
46,9:3
46,10:3
46,13:7
46,14:7
46,15:3
46,17:7
46,19:7
46,20:7
46,21:7
46,22:7
46,24:3
46,36:8
46,37:8
46,38:8
46,39:8
46,40:8
46,42:8
46,43:8
46,48:8
46,49:8
46,53:8
46,54:8
46,55:3
46,56:3
46,57:7
46,58:7
46,59:7
46,60:3
46,61:8
46,64:8
46,65:3
46,66:3
46,67:3
46,68:3
46,69:3
46,70:3
50,13:4
50,14:4
50,17:4
50,19:4
50,20:4
50,21:4
50,22:4
50,36:5
50,37:5
50,38:5
50,39:5
50,40:5
50,42:5
50,43:5
50,47:5
50,48:5
50,49:5
50,53:5
50,54:5
50,57:4
50,58:4
50,59:4
50,61:5
50,64:5
51,1:3
51,2:3
51,3:3
51,4:3
51,5:3
51,6:3
51,9:3
51,10:3
51,13:7
51,14:7
51,15:3
51,17:7
51,19:7
51,20:7
51,21:7
51,22:7
51,24:3
51,36:8
51,37:8
51,38:8
51,39:8
51,40:8
51,42:8
51,43:8
51,47:8
51,48:8
51,49:8
51,50:3
51,53:8
51,56:3
51,57:7
51,58:7
51,59:7
51,60:3
51,61:8
51,64:8
51,65:3
51,66:3
51,67:3
51,68:3
51,69:3
51,70:3
52,1:3
52,2:3
52,3:3
52,4:3
52,5:3
52,6:3
52,9:3
52,10:3
52,13:7
52,14:7
52,15:3
52,17:7
52,19:7
52,20:7
52,21:7
52,22:7
52,24:3
52,36:8
52,37:8
52,38:8
52,39:8
52,40:8
52,42:8
52,43:8
52,47:8
52,48:8
52,49:8
52,50:3
52,53:8
52,56:3
52,57:7
52,58:7
52,59:7
52,60:3
52,61:8
52,64:8
52,65:3
52,66:3
52,67:3
52,68:3
52,69:3
52,70:3
55,13:4
55,14:4
55,17:4
55,19:4
55,20:4
55,21:4
55,22:4
55,36:5
55,37:5
55,38:5
55,39:5
55,40:5
55,42:5
55,43:5
55,47:5
55,48:5
55,49:5
55,53:5
55,54:5
55,57:4
55,58:4
55,59:4
55,61:5
55,64:5
56,13:4
56,14:4
56,17:4
56,19:4
56,20:4
56,21:4
56,22:4
56,36:5
56,37:5
56,38:5
56,39:5
56,40:5
56,42:5
56,43:5
56,47:5
56,48:5
56,49:5
56,53:5
56,54:5
56,57:4
56,58:4
56,59:4
56,61:5
56,64:5
57,36:1
57,37:1
57,38:1
57,39:1
57,40:1
57,42:1
57,43:1
57,47:1
57,48:1
57,49:1
57,53:1
57,54:1
57,61:1
57,64:1
58,36:1
58,37:1
58,38:1
58,39:1
58,40:1
58,42:1
58,43:1
58,47:1
58,48:1
58,49:1
58,53:1
58,54:1
58,61:1
58,64:1
59,36:1
59,37:1
59,38:1
59,39:1
59,40:1
59,42:1
59,43:1
59,47:1
59,48:1
59,49:1
59,53:1
59,54:1
59,61:1
59,64:1
60,13:4
60,14:4
60,17:4
60,19:4
60,20:4
60,21:4
60,22:4
60,36:5
60,37:5
60,38:5
60,39:5
60,40:5
60,42:5
60,43:5
60,47:5
60,48:5
60,49:5
60,53:5
60,54:5
60,57:4
60,58:4
60,59:4
60,61:5
60,64:5
62,1:3
62,2:3
62,3:3
62,4:3
62,5:3
62,6:3
62,9:3
62,10:3
62,13:7
62,14:7
62,15:3
62,17:7
62,19:7
62,20:7
62,21:7
62,22:7
62,24:3
62,36:8
62,37:8
62,38:8
62,39:8
62,40:8
62,42:8
62,43:8
62,47:8
62,48:8
62,49:8
62,50:3
62,53:8
62,54:8
62,55:3
62,56:3
62,57:7
62,58:7
62,59:7
62,60:3
62,61:8
62,68:3
62,69:3
62,70:3
63,1:3
63,2:3
63,3:3
63,4:3
63,5:3
63,6:3
63,9:3
63,10:3
63,13:7
63,14:7
63,15:3
63,17:7
63,19:7
63,20:7
63,21:7
63,22:7
63,24:3
63,36:8
63,37:8
63,38:8
63,39:8
63,40:8
63,42:8
63,43:8
63,47:8
63,48:8
63,49:8
63,50:3
63,53:8
63,54:8
63,55:3
63,56:3
63,57:7
63,58:7
63,59:7
63,60:3
63,61:8
63,68:3
63,69:3
63,70:3
65,13:4
65,14:4
65,17:4
65,19:4
65,20:4
65,21:4
65,22:4
65,36:5
65,37:5
65,38:5
65,39:5
65,40:5
65,42:5
65,43:5
65,47:5
65,48:5
65,49:5
65,53:5
65,54:5
65,57:4
65,58:4
65,59:4
65,61:5
65,64:5
66,13:4
66,14:4
66,17:4
66,19:4
66,20:4
66,21:4
66,22:4
66,36:5
66,37:5
66,38:5
66,39:5
66,40:5
66,42:5
66,43:5
66,47:5
66,48:5
66,49:5
66,53:5
66,54:5
66,57:4
66,58:4
66,59:4
66,61:5
66,64:5
67,13:4
67,14:4
67,17:4
67,19:4
67,20:4
67,21:4
67,22:4
67,36:5
67,37:5
67,38:5
67,39:5
67,40:5
67,42:5
67,43:5
67,47:5
67,48:5
67,49:5
67,53:5
67,54:5
67,57:4
67,58:4
67,59:4
67,61:5
67,64:5
68,13:4
68,14:4
68,17:4
68,19:4
68,20:4
68,21:4
68,22:4
68,36:5
68,37:5
68,38:5
68,39:5
68,40:5
68,42:5
68,43:5
68,47:5
68,48:5
68,49:5
68,53:5
68,54:5
68,57:4
68,58:4
68,59:4
68,61:5
68,64:5
69,13:4
69,14:4
69,17:4
69,19:4
69,20:4
69,21:4
69,22:4
69,36:5
69,37:5
69,38:5
69,39:5
69,40:5
69,42:5
69,43:5
69,47:5
69,48:5
69,49:5
69,53:5
69,54:5
69,57:4
69,58:4
69,59:4
69,61:5
69,64:5
70,13:4
70,14:4
70,17:4
70,19:4
70,20:4
70,21:4
70,22:4
70,36:5
70,37:5
70,38:5
70,39:5
70,40:5
70,42:5
70,43:5
70,47:5
70,48:5
70,49:5
70,53:5
70,54:5
70,57:4
70,58:4
70,59:4
70,61:5
70,64:5

<end>

<optimal SALBP-1 value>
7


<rand seed>
467321153

